&CONTROL
  calculation = 'scf'
  etot_conv_thr =   4.0000000000d-05
  forc_conv_thr =   1.0000000000d-04
  max_seconds =   1.7100000000d+04
  outdir = './out/'
  prefix = 'aiida'
  pseudo_dir = './pseudo/'
  restart_mode = 'from_scratch'
  tprnfor = .true.
  tstress = .true.
  verbosity = 'high'
/
&SYSTEM
  degauss =   1.0000000000d-02
  ecutrho =   7.8000000000d+02
  ecutwfc =   6.5000000000d+01
  ibrav = 0
  nat = 4
  nosym = .false.
  nspin = 2
  ntyp = 2
  occupations = 'smearing'
  smearing = 'cold'
  starting_magnetization(1) =   3.3333333333d-01
  starting_magnetization(2) =   0.0000000000d+00
/
&ELECTRONS
  conv_thr =   8.0000000000d-10
  electron_maxstep = 160
  mixing_beta =   4.0000000000d-01
/
ATOMIC_SPECIES
Mn     54.938045 mn_pbe_v1.5.uspp.F.UPF
Si     28.0855 Si.pbe-n-rrkjus_psl.1.0.0.UPF
ATOMIC_POSITIONS angstrom
Mn           2.8610000000       0.0000000000       0.0000000000 
Mn           1.4305000000       1.4305000000       4.2915000000 
Mn           1.4305000000       4.2915000000       4.2915000000 
Si           0.0000000000       0.0000000000       0.0000000000 
K_POINTS automatic
13 13 13 0 0 0
CELL_PARAMETERS angstrom
      0.0000000000       2.8610000000       2.8610000000
      2.8610000000       0.0000000000       2.8610000000
      2.8610000000       2.8610000000       0.0000000000
